0 79307468 
1 79297681 
2 79188058 
3 77171535 
4 75716262 
5 75503135 
6 74867495 
7 74855915 
8 74844852 
9 74357770 
10 74322317 
11 73914660 
12 73784200 
13 72613075 
14 71651789 
15 71644334 
16 71597981 
17 67824196 
18 67471126 
19 66946273 
20 66937649 
21 62341627 
22 62308595 
23 60220006 
24 60208205 
25 60194299 
26 58553840 
27 56664727 
28 56659717 
29 55383400 
30 55368636 
31 55341555 
32 54960011 
33 54745169 
34 53858417 
35 53118659 
36 52747947 
37 52185927 
38 52159347 
39 50893163 
40 50885842 
41 50288281 
42 49198980 
43 48926818 
44 47999795 
45 47996957 
46 46626931 
47 46340268 
48 46266414 
49 45951952 
50 45316714 
51 44977988 
52 44823146 
53 44742673 
54 44742673 

